(set-logic HORN)
(set-info :source |
    Benchmark: C_VC
    Output by Princess (http://www.philipp.ruemmer.org/princess.shtml)
|)
(set-info :status sat)
(declare-heap Heap Addr HeapObject
 defObj
 ((HeapObject 0)) (
  (
   (O_Int (getInt Int))
   (O_UInt (getUInt Int))
   (O_Addr (getAddr Addr))
   (defObj)
  )
))
(declare-fun inv_main16 (Heap Int Int Int AddrRange AddrRange) Bool)
(declare-fun inv_main19 (Heap Int Int Int AddrRange AddrRange) Bool)
(declare-fun inv_main2 (Heap Int Int) Bool)
(declare-fun inv_main36 (Heap Int Int Int AddrRange AddrRange) Bool)
(declare-fun inv_main37 (Heap Int Int Int AddrRange AddrRange Int) Bool)
(declare-fun inv_main39 (Heap Int Int Int AddrRange AddrRange Int) Bool)
(declare-fun inv_main40 (Heap Int Int Int AddrRange AddrRange Int) Bool)
(declare-fun inv_main42 (Heap Int Int Int AddrRange AddrRange) Bool)
(assert (forall ((var0 Int) (var1 Int) (var2 Heap)) (or (not (and (and (= var2 emptyHeap) (= var1 0)) (= var0 100000))) (inv_main2 var2 var1 var0))))
(assert (forall ((var0 Int) (var1 AddrRange) (var2 AddrRange) (var3 Int) (var4 Int) (var5 Int) (var6 Heap) (var7 Int) (var8 AddrRange) (var9 AddrRange) (var10 Int) (var11 Int) (var12 Int) (var13 Heap)) (or (not (and (inv_main37 var13 var12 var11 var10 var9 var8 var7) (and (is-O_Int (read var13 (nthAddrRange var9 (+ (+ var7 (* (- 1) var10)) (- 1))))) (and (and (and (and (and (and (= var6 var13) (= var5 var12)) (= var4 var11)) (= var3 var10)) (= var2 var9)) (= var1 var8)) (= var0 (getInt (read var13 (nthAddrRange var9 (+ (+ var7 (* (- 1) var10)) (- 1)))))))))) (inv_main39 var6 var5 var4 var3 var2 var1 var5))))
(assert (forall ((var0 Int) (var1 Heap) (var2 Int) (var3 AddrRange) (var4 AddrRange) (var5 Int) (var6 Int) (var7 Int) (var8 Heap)) (or (not (and (inv_main39 var8 var7 var6 var5 var4 var3 var2) (and (and (is-O_Int (read var8 (nthAddrRange var3 (+ (+ var2 (* (- 1) var5)) (- 1))))) (is-O_Int (read var8 (nthAddrRange var3 (+ (+ var2 (* (- 1) var5)) (- 1)))))) (= var1 (write var8 (nthAddrRange var3 (+ (+ var2 (* (- 1) var5)) (- 1))) (O_Int var0)))))) (inv_main36 var1 var7 var6 var5 var4 var3))))
(assert (forall ((var0 Int) (var1 AddrRange) (var2 AddrRange) (var3 Int) (var4 Int) (var5 Int) (var6 Int) (var7 Heap) (var8 AddrRange) (var9 AddrRange) (var10 Int) (var11 Int) (var12 Int) (var13 Heap)) (or (not (and (inv_main19 var13 var12 var11 var10 var9 var8) (and (and (and (is-O_Int (read var13 (nthAddrRange var9 var10))) (is-O_Int (read var13 (nthAddrRange var9 var10)))) (and (and (and (and (and (= var7 (write var13 (nthAddrRange var9 var10) (O_Int var6))) (= var5 var12)) (= var4 var11)) (= var3 var10)) (= var2 var9)) (= var1 var8))) (= var0 (+ var3 1))))) (inv_main16 var7 var5 var4 var0 var2 var1))))
(assert (forall ((var0 Int) (var1 Int) (var2 Int) (var3 Int) (var4 Int) (var5 Int) (var6 Int) (var7 Heap) (var8 AddrRange) (var9 AddrRange) (var10 AddrRange) (var11 Int) (var12 Int) (var13 Int) (var14 Int) (var15 Int) (var16 Int) (var17 Int) (var18 Heap) (var19 Heap) (var20 Int) (var21 Int) (var22 Heap)) (or (not (and (inv_main2 var22 var21 var20) (and (and (and (and (and (and (and (and (= var19 (newBatchHeap (batchAlloc var18 (O_Int var17) var16))) (= var15 var16)) (= var14 var13)) (= var12 var11)) (= var10 var9)) (= var8 (newAddrRange (batchAlloc var18 (O_Int var17) var16)))) (and (and (and (and (= var18 (newBatchHeap (batchAlloc var7 (O_Int var6) var5))) (= var16 var5)) (= var13 var4)) (= var11 var3)) (= var9 (newAddrRange (batchAlloc var7 (O_Int var6) var5))))) (and (not (= var2 0)) (and (<= 0 (+ (+ var1 (- 1)) (- 1))) (and (and (and (= var7 var22) (= var5 var1)) (= var4 var20)) (or (and (<= 0 (+ (+ var20 (* (- 1) var1)) (- 1))) (= var2 1)) (and (not (<= 0 (+ (+ var20 (* (- 1) var1)) (- 1)))) (= var2 0))))))) (= var0 0)))) (inv_main16 var19 var15 var14 var0 var10 var8))))
(assert (forall ((var0 Int) (var1 AddrRange) (var2 AddrRange) (var3 Int) (var4 Int) (var5 Int) (var6 Heap)) (or (not (and (inv_main36 var6 var5 var4 var3 var2 var1) (and (is-O_Int (read var6 (nthAddrRange var2 var3))) (= var0 (getInt (read var6 (nthAddrRange var2 var3))))))) (inv_main40 var6 var5 var4 var3 var2 var1 var0))))
(assert (forall ((var0 AddrRange) (var1 AddrRange) (var2 Int) (var3 Int) (var4 Int) (var5 Heap)) (or (not (and (inv_main16 var5 var4 var3 var2 var1 var0) (<= 0 (+ (+ var4 (* (- 1) var2)) (- 1))))) (inv_main19 var5 var4 var3 var2 var1 var0))))
(assert (forall ((var0 Int) (var1 AddrRange) (var2 AddrRange) (var3 Int) (var4 Int) (var5 Heap) (var6 Int) (var7 Int) (var8 AddrRange) (var9 AddrRange) (var10 Int) (var11 Int) (var12 Int) (var13 Heap) (var14 Int) (var15 Int) (var16 Int) (var17 Int) (var18 Int) (var19 Int) (var20 Int)) (or (not (and (inv_main16 var13 var12 var11 var10 var9 var8) (and (and (and (and (and (and (<= 0 (+ (+ 2 (* (- 1) (+ var7 (* (- 2) var14)))) (- 1))) (<= 0 (+ (+ 2 (* 1 (+ var7 (* (- 2) var14)))) (- 1)))) (or (not (<= 0 (+ (+ var7 (* (- 2) var14)) (- 1)))) (<= 0 (+ var7 (- 1))))) (or (not (<= 0 (+ (* (- 1) (+ var7 (* (- 2) var14))) (- 1)))) (<= 0 (+ (* (- 1) var7) (- 1))))) (<= 0 (+ var14 (- 1)))) (and (and (not (= var6 0)) (and (and (and (and (and (and (= var5 var13) (= var7 var12)) (= var4 var11)) (= var3 var10)) (= var2 var9)) (= var1 var8)) (or (and (and (and (and (and (and (<= 0 (+ (+ 2 (* (- 1) var15)) (- 1))) (<= 0 (+ (+ 2 (* 1 var15)) (- 1)))) (or (not (<= 0 (+ var15 (- 1)))) (<= 0 (+ var12 (- 1))))) (or (not (<= 0 (+ (* (- 1) var15) (- 1)))) (<= 0 (+ (* (- 1) var12) (- 1))))) (= var12 (+ (* 2 var16) var15))) (= var15 0)) (= var6 1)) (and (not (or (not (and (and (and (and (<= 0 (+ (+ 2 (* (- 1) var17)) (- 1))) (<= 0 (+ (+ 2 (* 1 var17)) (- 1)))) (or (not (<= 0 (+ var17 (- 1)))) (<= 0 (+ var12 (- 1))))) (or (not (<= 0 (+ (* (- 1) var17) (- 1)))) (<= 0 (+ (* (- 1) var12) (- 1))))) (= var12 (+ (* 2 var18) var17)))) (= var17 0))) (= var6 0))))) (and (and (and (and (and (and (<= 0 (+ (+ 2 (* (- 1) var19)) (- 1))) (<= 0 (+ (+ 2 (* 1 var19)) (- 1)))) (or (not (<= 0 (+ var19 (- 1)))) (<= 0 (+ var12 (- 1))))) (or (not (<= 0 (+ (* (- 1) var19) (- 1)))) (<= 0 (+ (* (- 1) var12) (- 1))))) (= var12 (+ (* 2 var20) var19))) (= var19 0)) (not (<= 0 (+ (+ var12 (* (- 1) var10)) (- 1))))))) (= var0 0)))) (inv_main37 var5 var7 var4 var0 var2 var1 var7))))
(assert (forall ((var0 Int) (var1 AddrRange) (var2 AddrRange) (var3 Int) (var4 Heap) (var5 Int) (var6 Int) (var7 Int) (var8 AddrRange) (var9 AddrRange) (var10 Int) (var11 Int) (var12 Int) (var13 Heap) (var14 Int)) (or (not (and (inv_main40 var13 var12 var11 var10 var9 var8 var7) (and (and (and (and (and (and (<= 0 (+ (+ 2 (* (- 1) (+ var6 (* (- 2) var14)))) (- 1))) (<= 0 (+ (+ 2 (* 1 (+ var6 (* (- 2) var14)))) (- 1)))) (or (not (<= 0 (+ (+ var6 (* (- 2) var14)) (- 1)))) (<= 0 (+ var6 (- 1))))) (or (not (<= 0 (+ (* (- 1) (+ var6 (* (- 2) var14))) (- 1)))) (<= 0 (+ (* (- 1) var6) (- 1))))) (<= 0 (+ (+ var14 (* (- 1) (+ var5 1))) (- 1)))) (and (and (is-O_Int (read var13 (nthAddrRange var8 var10))) (is-O_Int (read var13 (nthAddrRange var8 var10)))) (and (and (and (and (and (= var4 (write var13 (nthAddrRange var8 var10) (O_Int var7))) (= var6 var12)) (= var3 var11)) (= var5 var10)) (= var2 var9)) (= var1 var8)))) (= var0 (+ var5 1))))) (inv_main37 var4 var6 var3 var0 var2 var1 var6))))
(assert (forall ((var0 Int) (var1 AddrRange) (var2 AddrRange) (var3 Int) (var4 Int) (var5 Int) (var6 Heap)) (or (not (and (inv_main42 var6 var5 var4 var3 var2 var1) (and (and (<= 0 (+ (+ var5 (* (- 1) (+ var3 1))) (- 1))) (and (is-O_Int (read var6 (nthAddrRange var1 var3))) (is-O_Int (read var6 (nthAddrRange var2 var3))))) (= var0 (+ var3 1))))) (inv_main42 var6 var5 var4 var0 var2 var1))))
(assert (forall ((var0 Int) (var1 AddrRange) (var2 AddrRange) (var3 Int) (var4 Int) (var5 Heap) (var6 Int) (var7 Int) (var8 AddrRange) (var9 AddrRange) (var10 Int) (var11 Int) (var12 Int) (var13 Heap) (var14 Int) (var15 Int) (var16 Int) (var17 Int) (var18 Int) (var19 Int) (var20 Int)) (or (not (and (inv_main16 var13 var12 var11 var10 var9 var8) (and (and (<= 0 (+ var7 (- 1))) (and (not (or (not (and (and (and (<= 0 (+ (+ 2 (* (- 1) (+ var7 (* (- 2) var14)))) (- 1))) (<= 0 (+ (+ 2 (* 1 (+ var7 (* (- 2) var14)))) (- 1)))) (or (not (<= 0 (+ (+ var7 (* (- 2) var14)) (- 1)))) (<= 0 (+ var7 (- 1))))) (or (not (<= 0 (+ (* (- 1) (+ var7 (* (- 2) var14))) (- 1)))) (<= 0 (+ (* (- 1) var7) (- 1)))))) (<= 0 (+ var14 (- 1))))) (and (and (not (= var6 0)) (and (and (and (and (and (and (= var5 var13) (= var7 var12)) (= var4 var11)) (= var3 var10)) (= var2 var9)) (= var1 var8)) (or (and (and (and (and (and (and (<= 0 (+ (+ 2 (* (- 1) var15)) (- 1))) (<= 0 (+ (+ 2 (* 1 var15)) (- 1)))) (or (not (<= 0 (+ var15 (- 1)))) (<= 0 (+ var12 (- 1))))) (or (not (<= 0 (+ (* (- 1) var15) (- 1)))) (<= 0 (+ (* (- 1) var12) (- 1))))) (= var12 (+ (* 2 var16) var15))) (= var15 0)) (= var6 1)) (and (not (or (not (and (and (and (and (<= 0 (+ (+ 2 (* (- 1) var17)) (- 1))) (<= 0 (+ (+ 2 (* 1 var17)) (- 1)))) (or (not (<= 0 (+ var17 (- 1)))) (<= 0 (+ var12 (- 1))))) (or (not (<= 0 (+ (* (- 1) var17) (- 1)))) (<= 0 (+ (* (- 1) var12) (- 1))))) (= var12 (+ (* 2 var18) var17)))) (= var17 0))) (= var6 0))))) (and (and (and (and (and (and (<= 0 (+ (+ 2 (* (- 1) var19)) (- 1))) (<= 0 (+ (+ 2 (* 1 var19)) (- 1)))) (or (not (<= 0 (+ var19 (- 1)))) (<= 0 (+ var12 (- 1))))) (or (not (<= 0 (+ (* (- 1) var19) (- 1)))) (<= 0 (+ (* (- 1) var12) (- 1))))) (= var12 (+ (* 2 var20) var19))) (= var19 0)) (not (<= 0 (+ (+ var12 (* (- 1) var10)) (- 1)))))))) (= var0 0)))) (inv_main42 var5 var7 var4 var0 var2 var1))))
(assert (forall ((var0 Int) (var1 AddrRange) (var2 AddrRange) (var3 Int) (var4 Heap) (var5 Int) (var6 Int) (var7 Int) (var8 AddrRange) (var9 AddrRange) (var10 Int) (var11 Int) (var12 Int) (var13 Heap) (var14 Int)) (or (not (and (inv_main40 var13 var12 var11 var10 var9 var8 var7) (and (and (<= 0 (+ var6 (- 1))) (and (not (or (not (and (and (and (<= 0 (+ (+ 2 (* (- 1) (+ var6 (* (- 2) var14)))) (- 1))) (<= 0 (+ (+ 2 (* 1 (+ var6 (* (- 2) var14)))) (- 1)))) (or (not (<= 0 (+ (+ var6 (* (- 2) var14)) (- 1)))) (<= 0 (+ var6 (- 1))))) (or (not (<= 0 (+ (* (- 1) (+ var6 (* (- 2) var14))) (- 1)))) (<= 0 (+ (* (- 1) var6) (- 1)))))) (<= 0 (+ (+ var14 (* (- 1) (+ var5 1))) (- 1))))) (and (and (is-O_Int (read var13 (nthAddrRange var8 var10))) (is-O_Int (read var13 (nthAddrRange var8 var10)))) (and (and (and (and (and (= var4 (write var13 (nthAddrRange var8 var10) (O_Int var7))) (= var6 var12)) (= var3 var11)) (= var5 var10)) (= var2 var9)) (= var1 var8))))) (= var0 0)))) (inv_main42 var4 var6 var3 var0 var2 var1))))
(assert (forall ((var0 AddrRange) (var1 AddrRange) (var2 Int) (var3 Int) (var4 Int) (var5 Heap)) (not (and (inv_main19 var5 var4 var3 var2 var1 var0) (not (is-O_Int (read var5 (nthAddrRange var1 var2))))))))
(assert (forall ((var0 AddrRange) (var1 AddrRange) (var2 Int) (var3 Int) (var4 Int) (var5 Heap)) (not (and (inv_main19 var5 var4 var3 var2 var1 var0) (and (is-O_Int (read var5 (nthAddrRange var1 var2))) (not (within var1 (nthAddrRange var1 var2))))))))
(assert (forall ((var0 AddrRange) (var1 AddrRange) (var2 Int) (var3 Int) (var4 Int) (var5 Heap)) (not (and (inv_main19 var5 var4 var3 var2 var1 var0) (and (is-O_Int (read var5 (nthAddrRange var1 var2))) (not (is-O_Int (read var5 (nthAddrRange var1 var2)))))))))
(assert (forall ((var0 Int) (var1 AddrRange) (var2 AddrRange) (var3 Int) (var4 Int) (var5 Int) (var6 Heap)) (not (and (inv_main37 var6 var5 var4 var3 var2 var1 var0) (not (is-O_Int (read var6 (nthAddrRange var2 (+ (+ var0 (* (- 1) var3)) (- 1))))))))))
(assert (forall ((var0 Int) (var1 AddrRange) (var2 AddrRange) (var3 Int) (var4 Int) (var5 Int) (var6 Heap)) (not (and (inv_main37 var6 var5 var4 var3 var2 var1 var0) (and (is-O_Int (read var6 (nthAddrRange var2 (+ (+ var0 (* (- 1) var3)) (- 1))))) (not (within var2 (nthAddrRange var2 (+ (+ var0 (* (- 1) var3)) (- 1))))))))))
(assert (forall ((var0 Int) (var1 AddrRange) (var2 AddrRange) (var3 Int) (var4 Int) (var5 Int) (var6 Heap)) (not (and (inv_main39 var6 var5 var4 var3 var2 var1 var0) (not (is-O_Int (read var6 (nthAddrRange var1 (+ (+ var0 (* (- 1) var3)) (- 1))))))))))
(assert (forall ((var0 Int) (var1 AddrRange) (var2 AddrRange) (var3 Int) (var4 Int) (var5 Int) (var6 Heap)) (not (and (inv_main39 var6 var5 var4 var3 var2 var1 var0) (and (is-O_Int (read var6 (nthAddrRange var1 (+ (+ var0 (* (- 1) var3)) (- 1))))) (not (within var1 (nthAddrRange var1 (+ (+ var0 (* (- 1) var3)) (- 1))))))))))
(assert (forall ((var0 Int) (var1 AddrRange) (var2 AddrRange) (var3 Int) (var4 Int) (var5 Int) (var6 Heap)) (not (and (inv_main39 var6 var5 var4 var3 var2 var1 var0) (and (is-O_Int (read var6 (nthAddrRange var1 (+ (+ var0 (* (- 1) var3)) (- 1))))) (not (is-O_Int (read var6 (nthAddrRange var1 (+ (+ var0 (* (- 1) var3)) (- 1)))))))))))
(assert (forall ((var0 AddrRange) (var1 AddrRange) (var2 Int) (var3 Int) (var4 Int) (var5 Heap)) (not (and (inv_main36 var5 var4 var3 var2 var1 var0) (not (is-O_Int (read var5 (nthAddrRange var1 var2))))))))
(assert (forall ((var0 AddrRange) (var1 AddrRange) (var2 Int) (var3 Int) (var4 Int) (var5 Heap)) (not (and (inv_main36 var5 var4 var3 var2 var1 var0) (and (is-O_Int (read var5 (nthAddrRange var1 var2))) (not (within var1 (nthAddrRange var1 var2))))))))
(assert (forall ((var0 Int) (var1 AddrRange) (var2 AddrRange) (var3 Int) (var4 Int) (var5 Int) (var6 Heap)) (not (and (inv_main40 var6 var5 var4 var3 var2 var1 var0) (not (is-O_Int (read var6 (nthAddrRange var1 var3))))))))
(assert (forall ((var0 Int) (var1 AddrRange) (var2 AddrRange) (var3 Int) (var4 Int) (var5 Int) (var6 Heap)) (not (and (inv_main40 var6 var5 var4 var3 var2 var1 var0) (and (is-O_Int (read var6 (nthAddrRange var1 var3))) (not (within var1 (nthAddrRange var1 var3))))))))
(assert (forall ((var0 Int) (var1 AddrRange) (var2 AddrRange) (var3 Int) (var4 Int) (var5 Int) (var6 Heap)) (not (and (inv_main40 var6 var5 var4 var3 var2 var1 var0) (and (is-O_Int (read var6 (nthAddrRange var1 var3))) (not (is-O_Int (read var6 (nthAddrRange var1 var3)))))))))
(assert (forall ((var0 AddrRange) (var1 AddrRange) (var2 Int) (var3 Int) (var4 Int) (var5 Heap)) (not (and (inv_main42 var5 var4 var3 var2 var1 var0) (not (is-O_Int (read var5 (nthAddrRange var0 var2))))))))
(assert (forall ((var0 AddrRange) (var1 AddrRange) (var2 Int) (var3 Int) (var4 Int) (var5 Heap)) (not (and (inv_main42 var5 var4 var3 var2 var1 var0) (not (within var0 (nthAddrRange var0 var2)))))))
(assert (forall ((var0 AddrRange) (var1 AddrRange) (var2 Int) (var3 Int) (var4 Int) (var5 Heap)) (not (and (inv_main42 var5 var4 var3 var2 var1 var0) (not (is-O_Int (read var5 (nthAddrRange var1 var2))))))))
(assert (forall ((var0 AddrRange) (var1 AddrRange) (var2 Int) (var3 Int) (var4 Int) (var5 Heap)) (not (and (inv_main42 var5 var4 var3 var2 var1 var0) (not (within var1 (nthAddrRange var1 var2)))))))
(assert (forall ((var0 AddrRange) (var1 AddrRange) (var2 Int) (var3 Int) (var4 Int) (var5 Heap)) (not (and (inv_main42 var5 var4 var3 var2 var1 var0) (not (is-O_Int (read var5 (nthAddrRange var0 var2))))))))
(assert (forall ((var0 AddrRange) (var1 AddrRange) (var2 Int) (var3 Int) (var4 Int) (var5 Heap)) (not (and (inv_main42 var5 var4 var3 var2 var1 var0) (and (is-O_Int (read var5 (nthAddrRange var0 var2))) (not (within var0 (nthAddrRange var0 var2))))))))
(assert (forall ((var0 AddrRange) (var1 AddrRange) (var2 Int) (var3 Int) (var4 Int) (var5 Heap)) (not (and (inv_main42 var5 var4 var3 var2 var1 var0) (and (is-O_Int (read var5 (nthAddrRange var0 var2))) (not (is-O_Int (read var5 (nthAddrRange var1 var2)))))))))
(assert (forall ((var0 AddrRange) (var1 AddrRange) (var2 Int) (var3 Int) (var4 Int) (var5 Heap)) (not (and (inv_main42 var5 var4 var3 var2 var1 var0) (and (and (is-O_Int (read var5 (nthAddrRange var0 var2))) (is-O_Int (read var5 (nthAddrRange var1 var2)))) (not (within var1 (nthAddrRange var1 var2))))))))
(assert (forall ((var0 AddrRange) (var1 AddrRange) (var2 Int) (var3 Int) (var4 Int) (var5 Heap)) (not (and (inv_main42 var5 var4 var3 var2 var1 var0) (and (and (is-O_Int (read var5 (nthAddrRange var0 var2))) (is-O_Int (read var5 (nthAddrRange var1 var2)))) (not (= (getInt (read var5 (nthAddrRange var0 var2))) (getInt (read var5 (nthAddrRange var1 var2))))))))))
(check-sat)
